WARNING: for repeatability, setting FPU to use double precision
============================[ Problem Statistics ]=============================
|                                                                             |
|  Number of variables:           100                                         |
|  Number of clauses:             449                                         |
|  Parse time:                   0.00 s                                       |
|  Eliminated clauses:           0.00 Mb                                      |
|  Simplification time:          0.00 s                                       |
|                                                                             |
============================[ Search Statistics ]==============================
| Conflicts |          ORIGINAL         |          LEARNT          | Progress |
|           |    Vars  Clauses Literals |    Limit  Clauses Lit/Cl |          |
===============================================================================
|       100 |      99      441     1323 |      161      100      7 |  0.010 % |
|       250 |      99      441     1323 |      177      169      6 |  0.011 % |
===============================================================================
restarts              : 3
conflicts             : 366            (91960 /sec)
decisions             : 454            (0.00 % random) (114070 /sec)
propagations          : 8724           (2191960 /sec)
conflict literals     : 2268           (20.78 % deleted)
Memory used           : 13.00 MB
CPU time              : 0.00398 s

SATISFIABLE
